NAME : P-n55-k15.989.tour
COMMENT : Cost = 0_989
COMMENT : Found by LKH [Keld Helsgaun] Wed Sep 13 11:55:44 2017
TYPE : TOUR
DIMENSION : 69
TOUR_SECTION
1
29
23
43
2
63
5
46
35
65
8
15
39
59
36
54
12
68
52
17
24
42
44
64
16
21
38
37
30
61
18
41
13
66
7
32
11
58
4
25
50
34
60
31
49
3
56
33
19
10
67
6
48
22
69
47
20
55
14
62
28
53
9
27
57
40
26
51
45
-1
EOF
